50 1 3
895 629 105 976 672 508 16 216 235 192 431 548 16 39 25 922 521 648 92 522 541 131 57 964 385 866 379 662 508 562 665 402 191 769 378 862 277 394 77 512 585 508 60 600 546 85 522 67 732 614 
588 273 744 645 237 128 511 615 789 18 176 454 420 366 223 798 228 500 191 305 11 775 813 70 375 358 155 897 425 887 510 12 159 254 657 395 381 167 10 170 184 186 624 604 552 846 401 779 345 591 
83 356 366 896 426 741 254 580 637 678 466 147 690 625 400 346 19 781 512 29 950 696 214 573 300 765 419 700 543 764 291 626 120 656 521 545 397 774 125 33 452 590 179 141 215 579 486 234 359 998 
2620 3080 6940 4750 8810 9930 2390 3000 6920 7820 630 9820 4080 1820 6380 9280 7270 340 7020 8510 670 1530 4410 2460 2940 6550 8240 7790 8880 1820 7770 1490 4900 4700 6240 3700 4620 8620 6700 1540 6430 7330 1360 500 9150 7730 9780 6410 8070 6800 
135270
